NAME          COPTPROB
OBJSENSE
  MIN
ROWS
 N  __OBJ___
 L  C16     
 L  C154    
 L  C231    
 L  C301    
 L  C331    
 L  C346    
 L  C363    
 L  C373    
 L  C509    
 L  C540    
 L  C583    
COLUMNS
    MARKER    'MARKER'                 'INTORG'
    x101      __OBJ___  -1
    x101      C154      1
    x101      C301      1
    x109      __OBJ___  -1
    x109      C346      1
    x109      C363      1
    x129      __OBJ___  -1
    x129      C301      1
    x129      C540      1
    x142      __OBJ___  -1
    x142      C373      1
    x142      C583      1
    x153      __OBJ___  -1
    x153      C331      1
    x153      C346      1
    x186      __OBJ___  -1
    x186      C231      1
    x186      C331      1
    x222      __OBJ___  -1
    x222      C154      1
    x222      C583      1
    x279      __OBJ___  -1
    x279      C16       1
    x279      C363      1
    x281      __OBJ___  -1
    x281      C231      1
    x281      C540      1
    x295      __OBJ___  -1
    x295      C373      1
    x295      C509      1
    x298      __OBJ___  -1
    x298      C16       1
    x298      C509      1
    MARKER    'MARKER'                 'INTEND'
RHS
    RHS       __OBJ___  164
    RHS       C16       1
    RHS       C154      1
    RHS       C231      1
    RHS       C301      1
    RHS       C331      1
    RHS       C346      1
    RHS       C363      1
    RHS       C373      1
    RHS       C509      1
    RHS       C540      1
    RHS       C583      1
BOUNDS
 UP BOUND     x101      1
 UP BOUND     x109      1
 UP BOUND     x129      1
 UP BOUND     x142      1
 UP BOUND     x153      1
 UP BOUND     x186      1
 UP BOUND     x222      1
 UP BOUND     x279      1
 UP BOUND     x281      1
 UP BOUND     x295      1
 UP BOUND     x298      1
ENDATA
